100 156858
13 18 77 78 47 41 57 60 98 88 51 89 44 34 100 7 33 63 56 70 79 67 48 40 64 74 17 91 71 31 6 28 96 62 4 10 95 54 27 53 25 8 46 86 19 32 68 73 43 11 69 52 81 99 97 5 38 49 76 75 65 35 87 42 20 36 26 45 83 15 16 59 50 72 58 66 2 92 90 23 24 82 93 39 1 12 14 21 29 61 94 55 3 37 84 22 85 9 30 80 
